p min 8 11
n 0 -5
n 7 5
a 1 4 0 7429 678
a 1 2 0 5978 234
a 2 5 0 2665 792
a 2 3 0 6066 297
a 3 6 0 5821 82
a 3 7 0 3433 876
a 4 5 0 4375 239
a 5 6 0 1170 888
a 6 7 0 9981 104
a 0 1 0 2804 390
a 0 4 0 8752 285
